DIMENSION: 7
EDGE_WEIGHT_TYPE: EXPLICIT
EDGE_WEIGHT_FORMAT: FULL_MATRIX
EDGE_WEIGHT_SECTION:
32767 58 67 18 32767 79 63 
58 32767 32767 64 76 32767 32767 
67 32767 32767 5 38 32767 32767 
18 64 5 32767 54 48 73 
32767 76 38 54 32767 20 5 
79 32767 32767 48 20 32767 32767 
63 32767 32767 73 5 32767 32767 
EOF